GLPSOL: GLPK LP/MIP Solver, v4.57
Parameter(s) specified in the command line:
 -m orientering_problem.mod -d data/eil51.dat -o solutions/eil51.sol
Reading model section from orientering_problem.mod...
38 lines were read
Reading data section from data/eil51.dat...
data/eil51.dat:109: warning: final NL missing before end of file
109 lines were read
Generating obj...
Generating c1...
Generating c2...
Generating c3...
Generating c4...
Generating c5...
Generating c6...
Generating c7...
Generating c8...
Generating c9...
Generating c10...
Model has been successfully generated
GLPK Integer Optimizer, v4.57
2757 rows, 2703 columns, 22903 non-zeros
2652 integer variables, all of which are binary
Preprocessing...
2655 rows, 2652 columns, 22702 non-zeros
2602 integer variables, all of which are binary
Scaling...
 A: min|aij| =  1.000e+00  max|aij| =  8.600e+01  ratio =  8.600e+01
GM: min|aij| =  4.617e-01  max|aij| =  2.166e+00  ratio =  4.690e+00
EQ: min|aij| =  2.132e-01  max|aij| =  1.000e+00  ratio =  4.690e+00
2N: min|aij| =  1.250e-01  max|aij| =  1.562e+00  ratio =  1.250e+01
Constructing initial basis...
Size of triangular part is 2653
Solving LP relaxation...
GLPK Simplex Optimizer, v4.57
2655 rows, 2652 columns, 22702 non-zeros
      0: obj =   2.500000000e+01 inf =   2.000e+00 (1)
      1: obj =   2.500000000e+01 inf =   0.000e+00 (0)
*   223: obj =   1.677175385e+03 inf =   1.907e-14 (0) 1
OPTIMAL LP SOLUTION FOUND
Integer optimization begins...
+   223: mip =     not found yet <=              +inf        (1; 0)
+  2310: mip =     not found yet <=   1.621000000e+03        (179; 3)
+  4648: mip =     not found yet <=   1.601000000e+03        (342; 8)
+  7059: mip =     not found yet <=   1.594000000e+03        (513; 16)
+  9770: mip =     not found yet <=   1.593000000e+03        (679; 21)
+ 12210: mip =     not found yet <=   1.587000000e+03        (867; 27)
+ 14518: mip =     not found yet <=   1.586000000e+03        (1044; 34)
+ 17277: mip =     not found yet <=   1.583000000e+03        (1228; 42)
+ 19571: mip =     not found yet <=   1.579000000e+03        (1394; 48)
+ 21831: mip =     not found yet <=   1.578000000e+03        (1574; 52)
+ 24000: mip =     not found yet <=   1.576000000e+03        (1737; 59)
+ 26309: mip =     not found yet <=   1.574000000e+03        (1908; 65)
Time used: 60.0 secs.  Memory used: 13.2 Mb.
+ 28990: mip =     not found yet <=   1.573000000e+03        (2076; 71)
+ 31150: mip =     not found yet <=   1.572000000e+03        (2220; 76)
+ 33249: mip =     not found yet <=   1.571000000e+03        (2352; 80)
+ 35480: mip =     not found yet <=   1.570000000e+03        (2514; 86)
+ 37809: mip =     not found yet <=   1.568000000e+03        (2671; 93)
+ 40379: mip =     not found yet <=   1.566000000e+03        (2843; 100)
+ 43237: mip =     not found yet <=   1.565000000e+03        (3045; 107)
+ 45862: mip =     not found yet <=   1.564000000e+03        (3238; 114)
+ 48428: mip =     not found yet <=   1.563000000e+03        (3424; 120)
+ 51145: mip =     not found yet <=   1.562000000e+03        (3614; 127)
+ 53513: mip =     not found yet <=   1.561000000e+03        (3789; 134)
+ 56514: mip =     not found yet <=   1.560000000e+03        (3996; 141)
Time used: 120.0 secs.  Memory used: 19.8 Mb.
+ 59309: mip =     not found yet <=   1.559000000e+03        (4195; 150)
+ 62158: mip =     not found yet <=   1.558000000e+03        (4391; 157)
+ 65251: mip =     not found yet <=   1.558000000e+03        (4592; 165)
+ 68120: mip =     not found yet <=   1.558000000e+03        (4786; 172)
+ 71290: mip =     not found yet <=   1.556000000e+03        (5001; 181)
+ 74159: mip =     not found yet <=   1.555000000e+03        (5182; 189)
